HUN,8,6,767
0,1,2,10,1,18,3,19,5,11,4,24
2,12,1,4,0,19,5,27,4,21,3,19
0,10,1,9,2,17,5,12,3,14,4,7
2,19,0,21,1,1,3,14,5,30,4,1
2,10,1,6,0,10,5,19,3,15,4,15
0,19,2,22,1,10,5,25,3,5,4,29
1,9,2,16,0,30,4,12,3,14,5,20
1,16,0,30,2,30,4,26,5,16,3,23
